
Starting CP-SAT solver v9.15.6755
Parameters: random_seed: 2026074141 max_time_in_seconds: 6939.9999994123327 log_search_progress: true cp_model_presolve: true linearization_level: 2 num_search_workers: 4 cp_model_probing_level: 2 symmetry_level: 2

Initial satisfaction model '': (model_fingerprint: 0x40d5d5ae1347716c)
#Variables: 724 (608 primary variables)
  - 724 Booleans in [0,1]
#kBoolAnd: 110 (#enforced: 110) (#literals: 330)
#kBoolOr: 110 (#enforced: 110) (#literals: 220)
#kExactlyOne: 87 (#literals: 261)
#kLinear1: 32 (#enforced: 6)
#kLinear2: 336 (#enforced: 336) (#complex_domain: 110)
#kLinear3: 1'600 (#enforced: 6)
#kLinearN: 1'132 (#enforced: 243) (#terms: 9'111)

Starting presolve at 0.00s
  7.14e-04s  0.00e+00d  [DetectDominanceRelations] 
  8.87e-03s  0.00e+00d  [PresolveToFixPoint] #num_loops=3 #num_dual_strengthening=1 
  3.64e-05s  0.00e+00d  [ExtractEncodingFromLinear] #potential_supersets=86 
  3.11e-04s  0.00e+00d  [DetectDuplicateColumns] 
  1.05e-04s  0.00e+00d  [DetectDuplicateConstraints] #duplicates=5 
[Symmetry] Graph for symmetry has 4'868 nodes and 15'698 arcs.
[Symmetry] Symmetry computation done. time: 0.00133677 dtime: 0.00180285
[SAT presolve] num removable Booleans: 220 / 626
[SAT presolve] num trivial clauses: 0
[SAT presolve] [0s] clauses:2'728 literals:7'422 vars:506 one_side_vars:66 simple_definition:1 singleton_clauses:0
[SAT presolve] [0.000226983s] clauses:2'727 literals:7'415 vars:506 one_side_vars:66 simple_definition:1 singleton_clauses:0
[SAT presolve] [0.000544376s] clauses:2'495 literals:7'080 vars:394 one_side_vars:66 simple_definition:2 singleton_clauses:0
  1.32e-04s  0.00e+00d  [DetectDuplicateConstraintsWithDifferentEnforcements] #without_enforcements=2 
  6.02e-03s  3.38e-03d  [Probe] #probed=1'300 #fixed_bools=16 #equiv=8 #new_binary_clauses=856 
  7.68e-04s  5.82e-04d  [MaxClique] Merged 689 constraints with 1'520 literals into 604 constraints with 1'379 literals
  8.93e-04s  0.00e+00d  [DetectDominanceRelations] 
  3.50e-03s  0.00e+00d  [PresolveToFixPoint] #num_loops=2 #num_dual_strengthening=2 
  1.20e-03s  0.00e+00d  [ProcessAtMostOneAndLinear] 
  1.36e-04s  0.00e+00d  [DetectDuplicateConstraints] #duplicates=10 
  9.74e-05s  0.00e+00d  [DetectDuplicateConstraintsWithDifferentEnforcements] 
  3.74e-03s  1.09e-04d  [DetectDominatedLinearConstraints] #relevant_constraints=820 #num_inclusions=529 #num_redundant=7 
  1.26e-04s  0.00e+00d  [DetectDifferentVariables] 
  8.07e-04s  8.83e-05d  [ProcessSetPPC] #relevant_constraints=3'215 #num_inclusions=283 
  3.31e-04s  3.54e-05d  [TransformClausesToExactlyOne] #num_amos=622 #num_clauses=1'797 #num_transformed=5 #num_checked=1'797 
  4.59e-05s  0.00e+00d  [DetectEncodedComplexDomains] 
  4.09e-05s  1.80e-07d  [FindAlmostIdenticalLinearConstraints] #num_tested_pairs=2 
  9.43e-04s  1.41e-03d  [FindBigAtMostOneAndLinearOverlap] 
  1.49e-03s  1.22e-03d  [FindBigVerticalLinearOverlap] #blocks=3 #saved_nz=92 
  3.98e-04s  6.74e-04d  [FindBigHorizontalLinearOverlap] #linears=451 
  3.62e-04s  2.80e-05d  [MergeClauses] #num_collisions=6 #num_merges=6 #num_saved_literals=13 
  8.56e-04s  0.00e+00d  [DetectDominanceRelations] 
  3.17e-03s  0.00e+00d  [PresolveToFixPoint] #num_loops=2 #num_dual_strengthening=1 
  8.49e-04s  0.00e+00d  [DetectDominanceRelations] 
  3.04e-03s  0.00e+00d  [PresolveToFixPoint] #num_loops=1 #num_dual_strengthening=1 
  2.21e-04s  0.00e+00d  [DetectDuplicateColumns] 
  1.04e-04s  0.00e+00d  [DetectDuplicateConstraints] 
[Symmetry] Graph for symmetry has 4'533 nodes and 14'085 arcs.
[Symmetry] Symmetry computation done. time: 0.00102945 dtime: 0.0014523
[SAT presolve] num removable Booleans: 100 / 489
[SAT presolve] num trivial clauses: 0
[SAT presolve] [0s] clauses:2'364 literals:6'747 vars:464 one_side_vars:159 simple_definition:11 singleton_clauses:0
[SAT presolve] [0.000226302s] clauses:2'364 literals:6'599 vars:464 one_side_vars:160 simple_definition:81 singleton_clauses:0
[SAT presolve] [0.00036459s] clauses:2'173 literals:6'155 vars:460 one_side_vars:196 simple_definition:64 singleton_clauses:0
  1.66e-04s  0.00e+00d  [DetectDuplicateConstraintsWithDifferentEnforcements] 
  5.06e-03s  1.74e-03d  [Probe] #probed=1'282 #new_binary_clauses=390 
  4.33e-04s  2.79e-04d  [MaxClique] Merged 510 constraints with 1'123 literals into 498 constraints with 1'110 literals
  8.62e-04s  0.00e+00d  [DetectDominanceRelations] 
  3.15e-03s  0.00e+00d  [PresolveToFixPoint] #num_loops=1 #num_dual_strengthening=1 
  1.12e-03s  0.00e+00d  [ProcessAtMostOneAndLinear] 
  1.22e-04s  0.00e+00d  [DetectDuplicateConstraints] 
  1.07e-04s  0.00e+00d  [DetectDuplicateConstraintsWithDifferentEnforcements] 
  1.31e-03s  6.16e-05d  [DetectDominatedLinearConstraints] #relevant_constraints=811 #num_inclusions=313 #num_redundant=1 
  1.37e-04s  0.00e+00d  [DetectDifferentVariables] 
  7.37e-04s  7.54e-05d  [ProcessSetPPC] #relevant_constraints=3'076 #num_inclusions=104 
  3.20e-04s  3.24e-05d  [TransformClausesToExactlyOne] #num_amos=494 #num_clauses=1'709 #num_checked=1'709 
  5.45e-05s  0.00e+00d  [DetectEncodedComplexDomains] 
  5.28e-05s  0.00e+00d  [FindAlmostIdenticalLinearConstraints] 
  8.52e-04s  1.21e-03d  [FindBigAtMostOneAndLinearOverlap] 
  1.36e-03s  1.05e-03d  [FindBigVerticalLinearOverlap] #blocks=3 #saved_nz=225 
  3.83e-04s  6.17e-04d  [FindBigHorizontalLinearOverlap] #linears=453 
  3.34e-04s  2.61e-05d  [MergeClauses] #num_collisions=73 #num_merges=73 #num_saved_literals=177 
  8.57e-04s  0.00e+00d  [DetectDominanceRelations] 
  3.17e-03s  0.00e+00d  [PresolveToFixPoint] #num_loops=2 #num_dual_strengthening=1 
  8.33e-04s  0.00e+00d  [DetectDominanceRelations] 
  2.97e-03s  0.00e+00d  [PresolveToFixPoint] #num_loops=1 #num_dual_strengthening=1 
  2.69e-04s  0.00e+00d  [DetectDuplicateColumns] 
  1.37e-04s  0.00e+00d  [DetectDuplicateConstraints] 
[Symmetry] Graph for symmetry has 4'289 nodes and 12'935 arcs.
[Symmetry] Symmetry computation done. time: 0.000960903 dtime: 0.00129116
[SAT presolve] num removable Booleans: 96 / 485
[SAT presolve] num trivial clauses: 0
[SAT presolve] [0s] clauses:2'151 literals:6'107 vars:460 one_side_vars:196 simple_definition:64 singleton_clauses:0
[SAT presolve] [0.000195444s] clauses:2'151 literals:6'107 vars:460 one_side_vars:196 simple_definition:64 singleton_clauses:0
[SAT presolve] [0.000255787s] clauses:2'151 literals:6'107 vars:460 one_side_vars:196 simple_definition:64 singleton_clauses:0
  2.04e-04s  0.00e+00d  [DetectDuplicateConstraintsWithDifferentEnforcements] 
  5.79e-03s  1.84e-03d  [Probe] #probed=1'282 #new_binary_clauses=390 
  4.24e-04s  2.71e-04d  [MaxClique] 
  8.48e-04s  0.00e+00d  [DetectDominanceRelations] 
  3.06e-03s  0.00e+00d  [PresolveToFixPoint] #num_loops=1 #num_dual_strengthening=1 
  1.11e-03s  0.00e+00d  [ProcessAtMostOneAndLinear] 
  1.23e-04s  0.00e+00d  [DetectDuplicateConstraints] 
  1.08e-04s  0.00e+00d  [DetectDuplicateConstraintsWithDifferentEnforcements] 
  1.39e-03s  5.96e-05d  [DetectDominatedLinearConstraints] #relevant_constraints=813 #num_inclusions=326 #num_redundant=1 
  2.51e-04s  0.00e+00d  [DetectDifferentVariables] 
  7.34e-04s  7.12e-05d  [ProcessSetPPC] #relevant_constraints=3'071 #num_inclusions=80 
  3.30e-04s  3.24e-05d  [TransformClausesToExactlyOne] #num_amos=491 #num_clauses=1'709 #num_checked=1'709 
  6.53e-05s  0.00e+00d  [DetectEncodedComplexDomains] 
  6.45e-05s  3.30e-07d  [FindAlmostIdenticalLinearConstraints] #num_tested_pairs=4 
  7.84e-04s  9.62e-04d  [FindBigAtMostOneAndLinearOverlap] 
  1.14e-03s  8.05e-04d  [FindBigVerticalLinearOverlap] #blocks=1 #saved_nz=37 
  3.44e-04s  5.49e-04d  [FindBigHorizontalLinearOverlap] #linears=451 
  3.39e-04s  2.61e-05d  [MergeClauses] #num_collisions=73 #num_merges=73 #num_saved_literals=177 
  8.71e-04s  0.00e+00d  [DetectDominanceRelations] 
  3.08e-03s  0.00e+00d  [PresolveToFixPoint] #num_loops=2 #num_dual_strengthening=1 
  2.98e-05s  0.00e+00d  [MergeNoOverlap] 
  3.33e-05s  0.00e+00d  [MergeNoOverlap2D] 

Presolve summary:
  - 41 affine relations were detected.
  - rule 'TODO dual: only one blocking constraint?' was applied 971 times.
  - rule 'TODO linear inclusion: superset is equality' was applied 306 times.
  - rule 'affine: new relation' was applied 41 times.
  - rule 'at_most_one: removed literals' was applied 53 times.
  - rule 'at_most_one: size one' was applied 52 times.
  - rule 'at_most_one: transformed into max clique' was applied 2 times.
  - rule 'bool_and: cannot be enforced' was applied 1 time.
  - rule 'bool_or: always true' was applied 6 times.
  - rule 'bool_or: fixed literals' was applied 2 times.
  - rule 'bool_or: implications' was applied 75 times.
  - rule 'bool_or: only one literal' was applied 12 times.
  - rule 'bool_or: removed enforcement literal' was applied 557 times.
  - rule 'clauses: transformed into exactly one' was applied 5 times.
  - rule 'deductions: 855 stored' was applied 1 time.
  - rule 'dual: fix variable' was applied 1 time.
  - rule 'duplicate: merged rhs of linear constraint' was applied 14 times.
  - rule 'duplicate: removed constraint' was applied 15 times.
  - rule 'duplicate: removed enforced constraint' was applied 2 times.
  - rule 'enforcement: false literal' was applied 38 times.
  - rule 'enforcement: true literal' was applied 12 times.
  - rule 'exactly_one: removed literals' was applied 32 times.
  - rule 'exactly_one: satisfied' was applied 3 times.
  - rule 'exactly_one: singleton' was applied 2 times.
  - rule 'exactly_one: size two' was applied 30 times.
  - rule 'exactly_one: x and not(x)' was applied 5 times.
  - rule 'incompatible linear: add implication' was applied 129 times.
  - rule 'linear + amo: empty after processing' was applied 6 times.
  - rule 'linear + amo: extracted enforcement literal' was applied 58 times.
  - rule 'linear inclusion: redundant containing constraint' was applied 3 times.
  - rule 'linear inclusion: redundant included constraint' was applied 3 times.
  - rule 'linear inclusion: sparsify superset' was applied 3 times.
  - rule 'linear matrix: common vertical rectangle' was applied 7 times.
  - rule 'linear1: always true' was applied 4 times.
  - rule 'linear1: x in domain' was applied 26 times.
  - rule 'linear2: convert ax + by != cte to clauses' was applied 254 times.
  - rule 'linear2: convert implied ax + by == cte to clauses' was applied 114 times.
  - rule 'linear2: implied ax + by = cte has only one solution' was applied 8 times.
  - rule 'linear: always true' was applied 420 times.
  - rule 'linear: empty' was applied 7 times.
  - rule 'linear: enforcement literal in expression' was applied 6 times.
  - rule 'linear: extracted at most one (max)' was applied 1 time.
  - rule 'linear: fixed or dup variables' was applied 886 times.
  - rule 'linear: negative clause' was applied 1'299 times.
  - rule 'linear: negative reified and' was applied 78 times.
  - rule 'linear: never in domain' was applied 6 times.
  - rule 'linear: positive at most one' was applied 34 times.
  - rule 'linear: reduced variable domains' was applied 8 times.
  - rule 'linear: remapped using affine relations' was applied 33 times.
  - rule 'presolve: 83 unused variables removed.' was applied 1 time.
  - rule 'presolve: iteration' was applied 3 times.
  - rule 'probing: bool_or reduced to implication' was applied 42 times.
  - rule 'probing: simplified clauses' was applied 5 times.
  - rule 'setppc: bool_or in at_most_one' was applied 12 times.
  - rule 'setppc: removed dominated constraints' was applied 89 times.
  - rule 'variables: both boolean and its negation fix the same variable' was applied 3 times.
  - rule 'variables: detect half reified value encoding' was applied 6 times.

Presolved satisfaction model '': (model_fingerprint: 0xb5b3cb90703f201d)
#Variables: 489 (412 primary variables)
  - 485 Booleans in [0,1]
  - 3 in [0,2]
  - 1 in [0,9]
#kAtMostOne: 49 (#literals: 201)
#kBoolAnd: 259 (#enforced: 259) (#literals: 701)
#kBoolAndClauses: 73 (#enforced: 73 #multi: 73) (#literals: 323)
#kBoolOr: 1'563 (#literals: 4'723)
#kExactlyOne: 58 (#literals: 220)
#kLinearN: 811 (#enforced: 118) (#terms: 5'405)
[Symmetry] Graph for symmetry has 4'046 nodes and 12'877 arcs.
[Symmetry] Symmetry computation done. time: 0.000797218 dtime: 0.00125289

Preloading model.
#Model   0.10s var:489/489 constraints:2813/2813

Starting search at 0.10s with 4 workers.
3 full problem subsolvers: [default_lp, max_lp, no_lp]
1 first solution subsolver: [fj]
2 interleaved subsolvers: [feasibility_pump, rins/rens]
2 helper subsolvers: [neighborhood_helper, synchronization_agent]

#Model   0.67s var:487/489 constraints:2813/2813
#Model   2.00s var:486/489 constraints:2812/2813
#Model   3.65s var:485/489 constraints:2812/2813
#Model 178.85s var:484/489 constraints:2810/2813
#Model 308.05s var:483/489 constraints:2808/2813
#Model 448.91s var:482/489 constraints:2790/2813
#Model 1306.21s var:481/489 constraints:2790/2813
#Model 2413.08s var:480/489 constraints:2771/2813
#Model 2461.16s var:479/489 constraints:2754/2813
#Model 2463.64s var:478/489 constraints:2737/2813
#Model 2469.65s var:477/489 constraints:2716/2813
#Model 2502.41s var:476/489 constraints:2694/2813
#Model 2504.92s var:475/489 constraints:2691/2813
#Model 2506.84s var:474/489 constraints:2676/2813
#Model 2507.12s var:473/489 constraints:2661/2813
#Model 2509.85s var:467/489 constraints:2568/2813
#Model 2511.36s var:466/489 constraints:2547/2813
#Model 2512.14s var:465/489 constraints:2526/2813
#Model 2513.57s var:459/489 constraints:2457/2813
#Done  2514.16s no_lp

Task timing                   n [     min,      max]      avg      dev     time         n [     min,      max]      avg      dev    dtime
        'default_lp':         1 [  41.90m,   41.90m]   41.90m   0.00ns   41.90m         2 [  1.94ms,   41.77m]   20.88m   20.88m   41.77m
  'feasibility_pump':     12459 [868.35us, 109.08ms]   1.65ms   1.03ms   20.54s     12458 [278.71us,  93.87ms] 287.89us 838.47us    3.59s
                'fj':      8652 [106.73ms, 256.26ms] 144.01ms  10.83ms   20.77m      8652 [100.00ms, 100.13ms] 100.02ms  13.27us   14.42m
            'max_lp':         1 [  41.90m,   41.90m]   41.90m   0.00ns   41.90m         2 [ 78.89ms,   55.11m]   27.56m   27.55m   55.11m
             'no_lp':         1 [  41.90m,   41.90m]   41.90m   0.00ns   41.90m         2 [  1.63ms,    1.40h]   42.00m   42.00m    1.40h
         'rins/rens':     11300 [733.32us, 192.23ms] 110.26ms  40.89ms   20.77m     11292 [132.25us, 100.32ms]  68.43ms  37.03ms   12.88m

Search stats     Bools   Conflicts    Branches  Restarts  BacktrackToRoot   Backtrack     BoolPropag  IntegerPropag
  'default_lp':    485     226'689   8'110'530     1'169        1'267'565   1'827'030     79'320'775     92'087'066
      'max_lp':    485      85'447  12'534'990       547        1'918'616   2'434'581    116'217'846    147'135'718
       'no_lp':    485  20'304'550  27'029'094    68'759          520'747  20'648'826  1'708'894'204    416'441'468

SAT formula      Fixed  Equiv  Total  VarLeft  BinaryClauses  PermanentClauses  TemporaryClauses
  'default_lp':     22      8    485      455          3'140            27'701             2'223
      'max_lp':     24      8    485      453          3'146            24'433             1'545
       'no_lp':    252      8    485      225          3'316            48'403               739

SAT stats        ClassicMinim   LitRemoved  LitRemovedBinary   LitLearned  LitForgotten   Subsumed
  'default_lp':       196'759    2'513'310         1'095'730    6'277'632     3'910'502     89'270
      'max_lp':        71'593      829'387           386'877    1'811'213       791'287     39'232
       'no_lp':    18'186'129  316'188'410        80'900'509  477'710'775   370'775'435  5'893'307

Vivification       Clauses   Decisions  LitTrue  Subsumed  LitRemoved  DecisionReused  Conflicts
  'default_lp':  1'328'536   7'565'257        3    23'032     242'453         405'421      2'538
      'max_lp':  1'984'902  12'066'043        8    25'160     266'572         526'071      2'974
       'no_lp':    381'486   3'277'386        6    28'254     367'041          88'459      1'616

Clause deletion    at_true  l_and_not(l)  to_binary  sub_conflict  sub_extra  sub_decisions  sub_eager  sub_vivify  sub_probing  sub_inpro  blocked  eliminated   forgotten    promoted   conflicts
    'default_lp':   16'174             9         67        88'002        616          3'991      1'268      23'032        9'614     27'398        0           0     108'905     427'790     226'689
        'max_lp':   19'557         1'485         68        38'810        197          1'311        422      25'160        9'779     19'408        0           0      24'975     128'771      85'447
         'no_lp':  114'272            18        174     5'796'024     39'987        278'172     97'283      28'254       20'164    166'824        0           0  13'722'945  45'384'216  20'304'550

Lp stats         Component  Iterations  AddedCuts  OPTIMAL  DUAL_F.  DUAL_U.
  'default_lp':          1  30'356'765     73'524  299'933        2  171'358
      'max_lp':          1  14'228'290     67'200   31'479   45'104   30'548

Lp dimension        Final dimension of first component
  'default_lp':    295 rows, 341 columns, 2879 entries
      'max_lp':  1462 rows, 489 columns, 22024 entries

Lp debug         CutPropag  CutEqPropag   Adjust  Overflow        Bad  BadScaling
  'default_lp':          1           79  171'353         0  2'230'839           0
      'max_lp':          0          319   30'546         0  2'044'581           0

Lp pool          Constraints  Updates  Simplif  Merged  Shortened  Split  Strengthened       Cuts/Call
  'default_lp':       10'301   16'659   23'791       0     24'107    933             2  73'524/113'962
      'max_lp':       12'339   22'296   13'461       5     13'431  1'210         2'351  67'200/121'527

Lp Cut            default_lp  max_lp
          CG_FF:         667     183
           CG_K:         318      41
          CG_KL:         286      11
           CG_R:         747     123
          CG_RB:           6       8
         CG_RBP:           1       -
         Clique:           -     249
             IB:          22       8
       MIR_1_FF:         376     729
        MIR_1_K:          81      31
       MIR_1_KL:         239      11
        MIR_1_R:         328     296
       MIR_1_RB:           5       -
      MIR_1_RLT:           -   9'412
       MIR_2_FF:         348     423
        MIR_2_K:          70      80
       MIR_2_KL:         159      58
        MIR_2_R:         563     422
       MIR_2_RB:           4       1
      MIR_2_RBP:           7       1
       MIR_3_FF:         226     119
        MIR_3_K:          25      24
       MIR_3_KL:          70      26
        MIR_3_R:         359     169
       MIR_3_RB:           3       2
      MIR_3_RBP:           3       1
       MIR_4_FF:          53      33
        MIR_4_K:           9       4
       MIR_4_KL:          20       7
        MIR_4_R:         268     115
       MIR_4_RB:           1       5
      MIR_4_RBP:           3       3
       MIR_5_FF:          17      16
        MIR_5_K:           1       3
       MIR_5_KL:           3       2
        MIR_5_R:         200     117
       MIR_5_RB:           -       3
      MIR_5_RBP:           3       5
       MIR_6_FF:           6      10
        MIR_6_K:           -       2
        MIR_6_R:         145      93
       MIR_6_RB:           -       1
      MIR_6_RBP:           1       -
   ZERO_HALF_FF:         318     595
    ZERO_HALF_K:          45      25
   ZERO_HALF_KL:          61       5
    ZERO_HALF_R:      67'416  53'716
   ZERO_HALF_RB:          13       -
  ZERO_HALF_RBP:          28      12

LNS stats       Improv/Calls  Closed  Difficulty  TimeLimit
  'rins/rens':   11298/11298     50%    8.03e-01       0.10

LS stats                                    Batches  Restarts/Perturbs    LinMoves   GenMoves  CompoundMoves  Bactracks  WeightUpdates  ScoreComputed
                             'fj_restart':      331                102  10'140'788          0              0          0      8'238'270     10'371'059
                    'fj_restart_compound':      285                118           0  3'223'251        259'392  1'481'652          6'369     52'534'226
                'fj_restart_compound_obj':      676                131           0  8'026'739        370'670  3'827'765         20'034    125'246'416
            'fj_restart_compound_perturb':      602                122           0  7'155'993        301'486  3'426'999         19'236    111'621'430
        'fj_restart_compound_perturb_obj':      268                107           0  3'030'950        237'313  1'396'603          6'104     49'452'507
                       'fj_restart_decay':      402                109  13'211'550          0              0          0        544'620      6'893'010
              'fj_restart_decay_compound':      458                134           0  5'665'394        928'818  2'367'953          6'011     85'279'513
          'fj_restart_decay_compound_obj':      357                107           0  4'455'089        730'459  1'862'030          4'704     66'489'992
      'fj_restart_decay_compound_perturb':      361                124           0  4'438'826        734'241  1'851'963          4'756     67'213'517
  'fj_restart_decay_compound_perturb_obj':      582                117           0  7'582'810      1'221'689  3'180'204          7'508    108'668'141
                   'fj_restart_decay_obj':    1'665                124  54'767'113          0              0          0      2'255'224     28'609'527
               'fj_restart_decay_perturb':      604                112  19'855'851          0              0          0        818'263     10'374'074
           'fj_restart_decay_perturb_obj':      549                121  18'042'468          0              0          0        743'620      9'422'392
                         'fj_restart_obj':      707                121  20'267'245          0              0          0     18'608'183     22'499'080
                     'fj_restart_perturb':      385                125  11'703'294          0              0          0      9'699'326     11'386'315
                 'fj_restart_perturb_obj':      420                121  12'799'292          0              0          0     10'711'567     12'738'783

Solution repositories    Added  Queried  Synchro
    'alternative_path':      0        0        0
      'best_solutions':      0        0        0
   'fj solution hints':  1'887        0    1'887
        'lp solutions':    724   11'300      724
                'pump':      0        0

Improving bounds shared    Num  Sym
            'default_lp':   11    0
                'max_lp':    3    0
                 'no_lp':  137    0

Clauses shared    #Exported  #Imported  #BinaryRead  #BinaryTotal
   'default_lp':      6'336     83'098        1'400         1'621
       'max_lp':      6'327     83'534        1'487         1'621
        'no_lp':     81'967     11'817        1'621         1'621

LRAT_status: NA
CpSolverResponse summary:
status: INFEASIBLE
objective: NA
best_bound: NA
integers: 354
booleans: 485
conflicts: 20304550
branches: 27029094
propagations: 1708894204
integer_propagations: 416441468
restarts: 68759
lp_iterations: 0
walltime: 2514.19
usertime: 2514.19
deterministic_time: 12494.3
gap_integral: 0

{
  "board_size": 22,
  "parity_proved": 0,
  "target": 34,
  "child_id": 1941,
  "child_count": 2640,
  "partition": "unknown_pair_x_diag_plus_twos_x_diag_minus_twos",
  "build_seconds": 0.0839688777923584,
  "workers": 4,
  "requested_seed": 2026074141,
  "effective_seed": 2026074141,
  "main_diagonal_pair": [
    4,
    16
  ],
  "pair_index": 83,
  "diag_plus_twos": 16,
  "diag_minus_twos": 15,
  "pair_excess": 0,
  "residual_certificate_slack": 112,
  "analytic_minimum_line_defect": 46,
  "analytic_defect_details": {
    "row_costs": {
      "12": 6,
      "13": 3,
      "14": 0,
      "15": 0,
      "16": 0,
      "17": 0
    },
    "column_costs": {
      "12": 6,
      "13": 3,
      "14": 0,
      "15": 0,
      "16": 0,
      "17": 0
    },
    "plus_cost": 24,
    "minus_cost": 22,
    "row_column_minimum": 0
  },
  "maximal_line_constraints": 2455,
  "analytic_infeasible": false,
  "allowed_points": 242,
  "status": "INFEASIBLE",
  "proof_method": "cp_sat_all_lines_with_certificate_profile_cuts",
  "elapsed_seconds": 2514.1883533000946,
  "branches": 27029094,
  "conflicts": 20304550
}
